Problem:    PM
Rows:       6
Columns:    12 (12 integer, 12 binary)
Non-zeros:  36
Status:     INTEGER OPTIMAL
Objective:  cost = 1080 (MINimum)

   No.   Row name        Activity     Lower bound   Upper bound
------ ------------    ------------- ------------- -------------
     1 cost                     1080                             
     2 Assignment[database]
                                   1             1             = 
     3 Assignment[frontend]
                                   1             1             = 
     4 Assignment[backend]
                                   1             1             = 
     5 Assignment[testing]
                                   1             1             = 
     6 Completion_time
                                  38                          40 

   No. Column name       Activity     Lower bound   Upper bound
------ ------------    ------------- ------------- -------------
     1 x[database,Sr]
                    *              0             0             1 
     2 x[database,Md]
                    *              1             0             1 
     3 x[database,Jr]
                    *              0             0             1 
     4 x[frontend,Sr]
                    *              1             0             1 
     5 x[frontend,Md]
                    *              0             0             1 
     6 x[frontend,Jr]
                    *              0             0             1 
     7 x[backend,Sr]
                    *              0             0             1 
     8 x[backend,Md]
                    *              0             0             1 
     9 x[backend,Jr]
                    *              1             0             1 
    10 x[testing,Sr]
                    *              0             0             1 
    11 x[testing,Md]
                    *              0             0             1 
    12 x[testing,Jr]
                    *              1             0             1 

Integer feasibility conditions:

KKT.PE: max.abs.err = 0.00e+000 on row 0
        max.rel.err = 0.00e+000 on row 0
        High quality

KKT.PB: max.abs.err = 0.00e+000 on row 0
        max.rel.err = 0.00e+000 on row 0
        High quality

End of output
